(set-logic ALL)
(declare-var c (BitVec 32))
(declare-var c! (BitVec 32))
(declare-var conf_0 (BitVec 32))
(declare-var conf_0! (BitVec 32))
(declare-var conf_1 (BitVec 32))
(declare-var conf_1! (BitVec 32))
(declare-var conf_2 (BitVec 32))
(declare-var conf_2! (BitVec 32))
(declare-var conf_3 (BitVec 32))
(declare-var conf_3! (BitVec 32))
(declare-var conf_4 (BitVec 32))
(declare-var conf_4! (BitVec 32))
(declare-var y (BitVec 32))
(declare-var y! (BitVec 32))
(declare-var z (BitVec 32))
(declare-var z! (BitVec 32))
(declare-var tmp (BitVec 32))
(declare-var tmp! (BitVec 32))
(declare-var c_0 (BitVec 32))
(declare-var c_0! (BitVec 32))
(declare-var c_1 (BitVec 32))
(declare-var c_1! (BitVec 32))
(declare-var c_2 (BitVec 32))
(declare-var c_2! (BitVec 32))
(declare-var c_3 (BitVec 32))
(declare-var c_3! (BitVec 32))
(declare-var c_4 (BitVec 32))
(declare-var c_4! (BitVec 32))
(declare-var conf_0_0 (BitVec 32))
(declare-var conf_0_0! (BitVec 32))
(declare-var conf_1_0 (BitVec 32))
(declare-var conf_1_0! (BitVec 32))
(declare-var conf_1_1 (BitVec 32))
(declare-var conf_1_1! (BitVec 32))
(declare-var conf_1_2 (BitVec 32))
(declare-var conf_1_2! (BitVec 32))
(declare-var conf_1_3 (BitVec 32))
(declare-var conf_1_3! (BitVec 32))
(declare-var conf_2_0 (BitVec 32))
(declare-var conf_2_0! (BitVec 32))
(declare-var conf_3_0 (BitVec 32))
(declare-var conf_3_0! (BitVec 32))
(declare-var conf_3_1 (BitVec 32))
(declare-var conf_3_1! (BitVec 32))
(declare-var conf_3_2 (BitVec 32))
(declare-var conf_3_2! (BitVec 32))
(declare-var conf_3_3 (BitVec 32))
(declare-var conf_3_3! (BitVec 32))
(declare-var conf_4_0 (BitVec 32))
(declare-var conf_4_0! (BitVec 32))
(declare-var y_0 (BitVec 32))
(declare-var y_0! (BitVec 32))
(declare-var z_0 (BitVec 32))
(declare-var z_0! (BitVec 32))
(declare-var z_1 (BitVec 32))
(declare-var z_1! (BitVec 32))
(declare-var z_2 (BitVec 32))
(declare-var z_2! (BitVec 32))
(declare-var z_3 (BitVec 32))
(declare-var z_3! (BitVec 32))
(declare-var z_4 (BitVec 32))
(declare-var z_4! (BitVec 32))
(synth-fun inv-f((parameter0 (BitVec 32))(parameter1 (BitVec 32))(parameter2 (BitVec 32))(parameter3 (BitVec 32))(parameter4 (BitVec 32))(parameter5 (BitVec 32))(parameter6 (BitVec 32))(parameter7 (BitVec 32))(parameter8 (BitVec 32))(parameter9 (BitVec 32))(parameter10 (BitVec 32))(parameter11 (BitVec 32))(parameter12 (BitVec 32))(parameter13 (BitVec 32))(parameter14 (BitVec 32))(parameter15 (BitVec 32))(parameter16 (BitVec 32))(parameter17 (BitVec 32))(parameter18 (BitVec 32))(parameter19 (BitVec 32))(parameter20 (BitVec 32))(parameter21 (BitVec 32))(parameter22 (BitVec 32))(parameter23 (BitVec 32))(parameter24 (BitVec 32))(parameter25 (BitVec 32))(parameter26 (BitVec 32))(parameter27 (BitVec 32))(parameter28 (BitVec 32))(parameter29 (BitVec 32))(parameter30 (BitVec 32)))Bool) 
(constraint (=> (and (and (and (and (and (and (and (and (and (and (and (and (and (and (and (and (= c c_1) (= conf_0 conf_0_0) ) (= conf_1 conf_1_0) ) (= conf_2 conf_2_0) ) (= conf_3 conf_3_0) ) (= conf_4 conf_4_0) ) (= y y_0) ) (= z z_1) ) (= conf_0_0 (_ bv4 32)) ) (= conf_1_0 (_ bv7 32)) ) (= conf_2_0 (_ bv6 32)) ) (= conf_3_0 (_ bv5 32)) ) (= conf_4_0 (_ bv3 32)) ) (= c_1 (_ bv0 32)) ) (bvuge y_0 (_ bv0 32)) ) (bvuge y_0 (_ bv127 32)) ) (= z_1 (bvmul (_ bv36 32) y_0)) )(inv-f c conf_0 conf_1 conf_2 conf_3 conf_4 y z tmp c_0 c_1 c_2 c_3 c_4 conf_0_0 conf_1_0 conf_1_1 conf_1_2 conf_1_3 conf_2_0 conf_3_0 conf_3_1 conf_3_2 conf_3_3 conf_4_0 y_0 z_0 z_1 z_2 z_3 z_4 )))
(constraint (=> (and (inv-f c conf_0 conf_1 conf_2 conf_3 conf_4 y z tmp c_0 c_1 c_2 c_3 c_4 conf_0_0 conf_1_0 conf_1_1 conf_1_2 conf_1_3 conf_2_0 conf_3_0 conf_3_1 conf_3_2 conf_3_3 conf_4_0 y_0 z_0 z_1 z_2 z_3 z_4 ) (or (or (and (and (and (and (and (and (and (and (and (and (and (and (and (and (and (and (= c_2 c) (= conf_1_1 conf_1) ) (= conf_3_1 conf_3) ) (= z_2 z) ) (= c_2 c!) ) (= conf_1_1 conf_1!) ) (= conf_3_1 conf_3!) ) (= z_2 z!) ) (= c c!) ) (= conf_0 conf_0!) ) (= conf_1 conf_1!) ) (= conf_2 conf_2!) ) (= conf_3 conf_3!) ) (= conf_4 conf_4!) ) (= y y!) ) (= z z!) ) (= tmp tmp!) ) (and (and (and (and (and (and (and (and (and (and (and (and (and (and (and (and (and (and (and (and (and (and (and (and (and (= c_2 c) (= conf_1_1 conf_1) ) (= conf_3_1 conf_3) ) (= z_2 z) ) (bvult c_2 (_ bv36 32)) ) (= z_3 (bvadd z_2 (_ bv1 32))) ) (= conf_1_2 (bvadd conf_0_0 (_ bv512 32))) ) (= c_3 (bvadd c_2 (_ bv1 32))) ) (= conf_3_2 (bvsub conf_3_1 conf_2_0)) ) (= c_4 c_3) ) (= conf_1_3 conf_1_2) ) (= conf_3_3 conf_3_2) ) (= z_4 z_3) ) (= c_4 c!) ) (= conf_1_3 conf_1!) ) (= conf_3_3 conf_3!) ) (= z_4 z!) ) (= conf_0 conf_0_0) ) (= conf_0! conf_0_0) ) (= conf_2 conf_2_0) ) (= conf_2! conf_2_0) ) (= conf_4 conf_4_0) ) (= conf_4! conf_4_0) ) (= y y_0) ) (= y! y_0) ) (= tmp tmp!) ) ) (and (and (and (and (and (and (and (and (and (and (and (and (and (and (and (and (and (and (and (and (and (= c_2 c) (= conf_1_1 conf_1) ) (= conf_3_1 conf_3) ) (= z_2 z) ) (not (bvult c_2 (_ bv36 32))) ) (= c_4 c_2) ) (= conf_1_3 conf_1_1) ) (= conf_3_3 conf_3_1) ) (= z_4 z_2) ) (= c_4 c!) ) (= conf_1_3 conf_1!) ) (= conf_3_3 conf_3!) ) (= z_4 z!) ) (= conf_0 conf_0_0) ) (= conf_0! conf_0_0) ) (= conf_2 conf_2_0) ) (= conf_2! conf_2_0) ) (= conf_4 conf_4_0) ) (= conf_4! conf_4_0) ) (= y y_0) ) (= y! y_0) ) (= tmp tmp!) ) ) )(inv-f c! conf_0! conf_1! conf_2! conf_3! conf_4! y! z! tmp! c_0! c_1! c_2! c_3! c_4! conf_0_0! conf_1_0! conf_1_1! conf_1_2! conf_1_3! conf_2_0! conf_3_0! conf_3_1! conf_3_2! conf_3_3! conf_4_0! y_0! z_0! z_1! z_2! z_3! z_4! )))
(constraint (=> (inv-f c conf_0 conf_1 conf_2 conf_3 conf_4 y z tmp c_0 c_1 c_2 c_3 c_4 conf_0_0 conf_1_0 conf_1_1 conf_1_2 conf_1_3 conf_2_0 conf_3_0 conf_3_1 conf_3_2 conf_3_3 conf_4_0 y_0 z_0 z_1 z_2 z_3 z_4 )(or (not (and (and (and (and (and (and (and (= c c_2) (= conf_0 conf_0_0) ) (= conf_1 conf_1_1) ) (= conf_2 conf_2_0) ) (= conf_3 conf_3_1) ) (= conf_4 conf_4_0) ) (= y y_0) ) (= z z_2) )) (not (and (and (bvult z_2 (_ bv0 32)) (bvuge z_2 (_ bv4608 32)) ) (not (bvuge c_2 (_ bv36 32))) )) )))
(check-synth)

